SDVRP instances/custom_instances/p02_24_splitx10_0.vrp
NAME:p02_24_splitx10_
BEST_KNOWN: 0
COMMENT: 0
DIMENSION: 348
CAPACITY: 1400
EDGE_WEIGHT_FORMAT: FUNCTION
EDGE_WEIGHT_TYPE: EXACT_2D
NODE_COORD_SECTION
1 0.00000 0.00000
2 47 -45
3 47 -45
4 47 -45
5 47 -45
6 47 -45
7 47 -45
8 -31 22
9 -31 22
10 -31 22
11 -31 22
12 -31 22
13 5 -48
14 5 -48
15 5 -48
16 29 26
17 29 26
18 29 26
19 29 26
20 29 26
21 17 19
22 17 19
23 17 19
24 17 19
25 31 11
26 31 11
27 31 11
28 31 11
29 31 11
30 31 11
31 12 -21
32 12 -21
33 12 -21
34 12 -21
35 12 -21
36 -38 47
37 -38 47
38 -38 47
39 -38 47
40 -38 47
41 48 -49
42 48 -49
43 48 -49
44 48 -49
45 48 -49
46 48 -49
47 48 -49
48 21 -7
49 21 -7
50 21 -7
51 21 -7
52 21 -7
53 21 -7
54 21 -7
55 21 -7
56 6 -28
57 6 -28
58 6 -28
59 6 -28
60 -35 29
61 -35 29
62 -35 29
63 -35 29
64 -35 29
65 -11 -8
66 -11 -8
67 -11 -8
68 -11 -8
69 -11 -8
70 -11 -8
71 20 -27
72 20 -27
73 20 -27
74 20 -27
75 20 -27
76 20 -27
77 -40 23
78 -40 23
79 -40 23
80 -40 23
81 -40 23
82 -40 23
83 -40 23
84 24 -23
85 24 -23
86 24 -23
87 24 -23
88 -6 -28
89 -6 -28
90 -6 -28
91 -6 -28
92 -6 -28
93 -7 36
94 -7 36
95 -7 36
96 43 -33
97 43 -33
98 43 -33
99 43 -33
100 43 -33
101 42 6
102 42 6
103 42 6
104 42 6
105 42 6
106 42 6
107 42 6
108 8 -10
109 8 -10
110 8 -10
111 8 -10
112 8 -10
113 8 -10
114 8 -10
115 -1 -23
116 -1 -23
117 -1 -23
118 -1 -23
119 -1 -23
120 -1 -23
121 30 -31
122 30 -31
123 30 -31
124 30 -31
125 30 -31
126 25 -36
127 25 -36
128 -35 38
129 -35 38
130 -35 38
131 -35 38
132 -35 38
133 -6 -18
134 -6 -18
135 -6 -18
136 -6 -18
137 -6 -18
138 -29 -18
139 -29 -18
140 10 32
141 10 32
142 10 32
143 17 33
144 17 33
145 17 33
146 17 33
147 17 33
148 17 33
149 33 -22
150 33 -22
151 33 -22
152 33 -22
153 33 -22
154 8 47
155 8 47
156 8 47
157 8 47
158 8 47
159 8 47
160 -49 -38
161 -49 -38
162 -49 -38
163 -49 -38
164 -22 19
165 -22 19
166 -22 19
167 -22 19
168 6 -33
169 6 -33
170 6 -33
171 6 -33
172 6 -33
173 6 -33
174 -1 40
175 -1 40
176 -1 40
177 -1 40
178 -1 40
179 -49 -44
180 -49 -44
181 -49 -44
182 -49 -44
183 -49 -44
184 -49 -44
185 -49 -44
186 12 48
187 12 48
188 12 48
189 12 48
190 12 48
191 -49 -6
192 -49 -6
193 -49 -6
194 -49 -6
195 -49 -6
196 -46 -9
197 -46 -9
198 -46 -9
199 -46 -9
200 -46 -9
201 -46 -9
202 -35 -33
203 -35 -33
204 -35 -33
205 -35 -33
206 -35 -33
207 -35 -33
208 -17 -40
209 -17 -40
210 -17 -40
211 -17 -40
212 -17 -40
213 -17 -40
214 -30 -48
215 -30 -48
216 -30 -48
217 30 -29
218 30 -29
219 30 -29
220 -46 46
221 -46 46
222 40 -49
223 40 -49
224 40 -49
225 -10 -47
226 -10 -47
227 -14 41
228 -14 41
229 -14 41
230 -14 41
231 -6 -6
232 -6 -6
233 -6 -6
234 -6 -6
235 -6 -6
236 42 8
237 42 8
238 42 8
239 42 8
240 42 8
241 42 8
242 42 -21
243 42 -21
244 -5 -23
245 -5 -23
246 -5 -23
247 -5 -23
248 -5 -23
249 -5 -23
250 18 40
251 18 40
252 18 40
253 18 40
254 45 -33
255 45 -33
256 45 -33
257 45 -33
258 45 -33
259 26 -33
260 26 -33
261 26 -33
262 26 -33
263 26 -33
264 26 -33
265 -12 -32
266 -12 -32
267 -12 -32
268 27 18
269 27 18
270 27 18
271 -49 -50
272 -49 -50
273 -49 -50
274 -49 -50
275 -49 -50
276 2 -21
277 2 -21
278 2 -21
279 33 -48
280 33 -48
281 33 -48
282 33 -48
283 33 -48
284 -31 -4
285 -31 -4
286 -31 -4
287 -16 -27
288 -16 -27
289 -16 -27
290 -19 25
291 -19 25
292 -19 25
293 -19 25
294 -19 25
295 -19 25
296 -5 -36
297 -5 -36
298 -5 -19
299 -5 -19
300 -5 -19
301 -5 -19
302 -5 -19
303 -5 -19
304 -27 17
305 -27 17
306 -2 4
307 -2 4
308 -2 -5
309 -2 -5
310 -2 -5
311 -1 -1
312 -1 -1
313 -1 -1
314 4 -45
315 4 -45
316 4 -45
317 4 -45
318 4 -45
319 4 -45
320 25 38
321 25 38
322 25 38
323 25 38
324 25 38
325 -6 15
326 -6 15
327 -6 15
328 -6 15
329 -6 15
330 -29 41
331 -29 41
332 -29 41
333 -11 50
334 -11 50
335 -11 50
336 -11 50
337 -11 50
338 -19 32
339 -19 32
340 -19 32
341 -19 32
342 -19 32
343 -19 32
344 10 -43
345 10 -43
346 10 -43
347 10 -43
348 10 -43
DEMAND_SECTION
1 0
2 280
3 280
4 14
5 14
6 14
7 8
8 280
9 280
10 70
11 14
12 6
13 280
14 140
15 70
16 140
17 14
18 14
19 14
20 8
21 280
22 280
23 70
24 10
25 280
26 140
27 14
28 14
29 14
30 8
31 140
32 70
33 14
34 14
35 2
36 280
37 280
38 70
39 14
40 6
41 280
42 280
43 14
44 14
45 14
46 14
47 4
48 280
49 140
50 70
51 14
52 14
53 14
54 14
55 4
56 280
57 140
58 14
59 6
60 280
61 70
62 14
63 14
64 12
65 280
66 14
67 14
68 14
69 14
70 4
71 140
72 70
73 14
74 14
75 14
76 8
77 280
78 280
79 70
80 14
81 14
82 14
83 8
84 140
85 14
86 14
87 12
88 280
89 70
90 14
91 14
92 12
93 280
94 140
95 10
96 280
97 70
98 14
99 14
100 12
101 140
102 70
103 14
104 14
105 14
106 14
107 4
108 280
109 70
110 14
111 14
112 14
113 14
114 4
115 140
116 14
117 14
118 14
119 14
120 4
121 280
122 70
123 14
124 14
125 2
126 280
127 10
128 280
129 70
130 14
131 14
132 12
133 140
134 70
135 14
136 14
137 2
138 280
139 280
140 280
141 14
142 6
143 280
144 140
145 70
146 14
147 14
148 2
149 280
150 140
151 14
152 14
153 2
154 280
155 14
156 14
157 14
158 14
159 4
160 280
161 280
162 70
163 10
164 280
165 14
166 14
167 12
168 280
169 14
170 14
171 14
172 14
173 4
174 280
175 140
176 70
177 14
178 6
179 140
180 70
181 14
182 14
183 14
184 14
185 4
186 140
187 14
188 14
189 14
190 8
191 280
192 280
193 70
194 14
195 6
196 140
197 70
198 14
199 14
200 14
201 8
202 280
203 280
204 70
205 14
206 14
207 2
208 280
209 280
210 70
211 14
212 14
213 12
214 140
215 70
216 10
217 280
218 280
219 140
220 280
221 140
222 280
223 14
224 6
225 280
226 70
227 280
228 14
229 14
230 12
231 140
232 14
233 14
234 14
235 8
236 280
237 280
238 70
239 14
240 14
241 2
242 280
243 140
244 280
245 70
246 14
247 14
248 14
249 8
250 280
251 140
252 70
253 10
254 280
255 14
256 14
257 14
258 8
259 280
260 14
261 14
262 14
263 14
264 4
265 280
266 280
267 140
268 140
269 70
270 10
271 280
272 70
273 14
274 14
275 12
276 280
277 14
278 6
279 280
280 140
281 70
282 14
283 6
284 280
285 280
286 70
287 280
288 140
289 10
290 280
291 140
292 70
293 14
294 14
295 12
296 280
297 280
298 280
299 14
300 14
301 14
302 14
303 4
304 140
305 70
306 140
307 70
308 140
309 70
310 10
311 280
312 140
313 10
314 280
315 280
316 14
317 14
318 14
319 8
320 140
321 70
322 14
323 14
324 2
325 280
326 140
327 14
328 14
329 2
330 280
331 280
332 10
333 280
334 70
335 14
336 14
337 12
338 140
339 70
340 14
341 14
342 14
343 8
344 280
345 140
346 70
347 14
348 6
DEPOT_SECTION
1
-1
EOF