SDVRP instances/custom_instances/p02_24_splitx10_0.sol
347 -23 21 20 22 15 16 19 17 18 269 268 267 -26 29 24 28 25 27 236 240 238 239 237 235 102 100 101 105 103 106 104 -30 31 123 120 124 122 217 216 218 83 86 84 85 -33 34 32 261 260 263 262 259 46 40 43 44 42 45 41 4 3 6 2 1 5 121 -36 35 39 37 38 219 220 129 127 131 130 -50 53 54 51 47 52 48 49 151 150 149 148 152 111 112 107 108 109 -55 57 56 58 170 169 168 171 172 167 314 318 315 316 317 313 -74 75 72 71 70 73 97 98 99 95 96 256 257 255 254 253 242 241 -82 76 77 78 80 79 81 8 7 11 305 -93 94 92 334 333 336 332 335 227 226 228 229 337 338 341 340 342 339 -113 110 258 221 222 223 278 279 282 280 281 125 126 -140 139 141 188 189 187 186 185 154 156 155 158 157 153 176 177 174 173 175 -144 146 147 145 142 143 251 252 249 250 320 322 319 323 321 -161 160 162 159 180 181 179 182 178 184 183 271 270 274 273 272 203 205 204 206 -166 164 163 165 291 292 294 290 289 293 328 325 326 327 324 306 -202 201 213 214 215 286 287 288 307 -210 212 208 209 207 211 264 266 265 -224 225 14 12 13 346 344 345 343 347 -276 275 277 116 118 117 119 114 115 297 299 136 135 134 132 133 309 308 310 -283 285 191 193 194 192 190 198 197 196 199 195 200 311 -284 138 137 65 66 68 69 64 67 232 233 230 231 234 312 -296 295 88 89 87 91 90 243 248 246 245 244 247 302 301 298 300 -304 303 9 10 59 63 62 61 60 128 329 330 331 0 





OBJ=
2305.961
BEST_KNOWN=
0.000